<instance format="XCSP3" type="CSP">
  <variables>
    <var id="x0"> 8 9 11 13 14 </var>
    <var id="x1"> 0 11 13 </var>
    <var id="x2"> 5 6 8 9 14 </var>
    <var id="x3"> 0 5 6 13 </var>
    <var id="x4"> 0 5 8 9 </var>
    <var id="x5"> 6 9 </var>
    <var id="x6"> 9 11 13 14 </var>
    <var id="x7"> 0 5 6 8 11 14 </var>
    <var id="x8"> 4 8 9 12 14 </var>
    <var id="x9"> 8 9 12 14 </var>
    <var id="x10"> 2 8 9 </var>
    <var id="x11"> 2 12 14 </var>
    <var id="x12"> 1 2 9 12 </var>
    <var id="x13"> 1 2 </var>
    <var id="x14"> 1 8 12 </var>
    <var id="x15"> 0 7 9 </var>
    <var id="x16"> 0 2 3 7 9 </var>
    <var id="x17"> 0 2 6 12 </var>
    <var id="x18"> 2 3 6 9 12 </var>
    <var id="x19"> 0 3 12 </var>
    <var id="x20"> 9 12 </var>
    <var id="x21"> 0 6 </var>
    <var id="x22"> 0 5 9 </var>
    <var id="x23"> 4 6 9 11 </var>
    <var id="x24"> 4 8 9 11 </var>
    <var id="x25"> 0 11 </var>
    <var id="x26"> 0 5 6 </var>
    <var id="x27"> 0 8 11 </var>
    <var id="x28"> 4 9 11 </var>
    <var id="x29"> 0 5 7 9 </var>
    <var id="x30"> 9 11 14 </var>
    <var id="x31"> 5 9 14 </var>
    <var id="x32"> 0 2 5 </var>
    <var id="x33"> 2 5 9 11 </var>
    <var id="x34"> 0 2 5 14 </var>
    <var id="x35"> 0 2 7 </var>
    <var id="x36"> 1 6 7 9 </var>
    <var id="x37"> 0 1 7 12 </var>
    <var id="x38"> 6 8 9 12 </var>
    <var id="x39"> 8 9 12 </var>
    <var id="x40"> 0 1 6 7 </var>
    <var id="x41"> 0 1 8 12 </var>
    <var id="x42"> 0 6 9 </var>
    <var id="x43"> 1 7 11 </var>
    <var id="x44"> 1 7 11 12 </var>
    <var id="x45"> 3 5 12 </var>
    <var id="x46"> 2 5 11 12 </var>
    <var id="x47"> 2 5 12 </var>
    <var id="x48"> 1 5 11 </var>
    <var id="x49"> 2 5 </var>
    <var id="x50"> 1 10 11 13 </var>
    <var id="x51"> 1 2 5 13 </var>
    <var id="x52"> 2 5 8 11 </var>
    <var id="x53"> 2 5 8 </var>
    <var id="x54"> 1 2 10 </var>
    <var id="x55"> 10 11 13 </var>
    <var id="x56"> 2 5 </var>
    <var id="x57"> 0 1 10 13 </var>
    <var id="x58"> 1 4 13 </var>
    <var id="x59"> 4 13 14 </var>
    <var id="x60"> 0 1 3 13 </var>
    <var id="x61"> 0 1 3 10 </var>
    <var id="x62"> 0 1 3 10 13 </var>
    <var id="x63"> 0 4 14 </var>
    <var id="x64"> 6 8 12 </var>
    <var id="x65"> 0 2 6 </var>
    <var id="x66"> 2 4 8 12 </var>
    <var id="x67"> 2 6 10 12 </var>
    <var id="x68"> 0 8 10 12 </var>
    <var id="x69"> 4 10 12 </var>
    <var id="x70"> 0 6 8 </var>
    <var id="x71"> 1 10 13 </var>
    <var id="x72"> 1 4 6 11 13 </var>
    <var id="x73"> 2 4 11 </var>
    <var id="x74"> 2 </var>
    <var id="x75"> 4 10 11 13 </var>
    <var id="x76"> 1 6 11 </var>
    <var id="x77"> 2 4 6 </var>
    <var id="x78"> 9 11 12 14 </var>
    <var id="x79"> 0 1 10..12 </var>
    <var id="x80"> 0 1 </var>
    <var id="x81"> 9 11 12 </var>
    <var id="x82"> 0 10 12 14 </var>
    <var id="x83"> 0 1 10 </var>
    <var id="x84"> 0 9 14 </var>
    <var id="x85"> 6 13 </var>
    <var id="x86"> 12 13 </var>
    <var id="x87"> 0 3 5 </var>
    <var id="x88"> 0 5 6 10 12 </var>
    <var id="x89"> 3 6 10 12 </var>
    <var id="x90"> 0 3 10 12 13 </var>
    <var id="x91"> 0 5 6 </var>
    <var id="x92"> 5 7 9 13 </var>
    <var id="x93"> 6 7 9 13 </var>
    <var id="x94"> 7 12 13 </var>
    <var id="x95"> 3 5 6 13 </var>
    <var id="x96"> 3 5 7 9 </var>
    <var id="x97"> 3 6 9 12 </var>
    <var id="x98"> 9 12 13 </var>
    <var id="x99"> 1 5 9 10 13 </var>
    <var id="x100"> 3 5 9 14 </var>
    <var id="x101"> 1 3 9 10 </var>
    <var id="x102"> 1 3 10 </var>
    <var id="x103"> 1 3 10 13 </var>
    <var id="x104"> 1 5 14 </var>
    <var id="x105"> 5 9 14 </var>
  </variables>
  <constraints>
    <group>
      <allDifferent> %... </allDifferent>
      <args> x0 x1 x2 x3 x4 x5 x6 x7 </args>
      <args> x8 x9 x10 x11 x12 x13 x14 </args>
      <args> x15 x16 x17 x18 x19 x20 x21 </args>
      <args> x22 x23 x24 x25 x26 x27 x28 </args>
      <args> x29 x30 x31 x32 x33 x34 x35 </args>
      <args> x36 x37 x38 x39 x40 x41 x42 </args>
      <args> x43 x44 x45 x46 x47 x48 x49 </args>
      <args> x50 x51 x52 x53 x54 x55 x56 </args>
      <args> x57 x58 x59 x60 x61 x62 x63 </args>
      <args> x64 x65 x66 x67 x68 x69 x70 </args>
      <args> x71 x72 x73 x74 x75 x76 x77 </args>
      <args> x78 x79 x80 x81 x82 x83 x84 </args>
      <args> x85 x86 x87 x88 x89 x90 x91 </args>
      <args> x92 x93 x94 x95 x96 x97 x98 </args>
      <args> x99 x100 x101 x102 x103 x104 x105 </args>
      <args> x15 x22 x29 x57 x71 x92 x99 </args>
      <args> x23 x36 x43 x58 x72 x85 x93 </args>
      <args> x0 x8 x24 x30 x59 x78 x86 </args>
      <args> x1 x25 x37 x44 x50 x79 x94 </args>
      <args> x2 x9 x31 x38 x45 x64 x100 </args>
      <args> x3 x32 x51 x60 x65 x80 x95 </args>
      <args> x33 x39 x46 x52 x66 x73 x81 </args>
      <args> x4 x10 x16 x53 x74 x87 x96 </args>
      <args> x11 x17 x26 x34 x47 x82 x88 </args>
      <args> x5 x12 x18 x67 x89 x97 x101 </args>
      <args> x13 x35 x40 x54 x61 x83 x102 </args>
      <args> x14 x19 x27 x41 x62 x68 x90 x103 </args>
      <args> x6 x20 x28 x55 x69 x75 x98 </args>
      <args> x7 x21 x48 x70 x76 x91 x104 </args>
      <args> x42 x49 x56 x63 x77 x84 x105 </args>
    </group>
  </constraints>
</instance>

